NAME : surveytsp.18415845.tour
COMMENT : Length = 18415845
COMMENT : Found by LKH [Keld Helsgaun]
TYPE : TOUR
DIMENSION : 77
TOUR_SECTION
1
11
12
26
25
35
36
50
49
59
60
48
47
57
58
46
45
55
56
42
41
71
72
62
61
73
74
64
63
75
76
66
65
39
40
30
29
19
20
10
9
23
24
34
33
21
22
32
31
67
68
77
70
69
43
44
54
53
51
52
38
37
27
28
8
7
17
18
6
5
15
16
4
3
13
14
2
-1
EOF
